circuit_heights=[12, 7, 7, 5, 3, 6, 7, 5, 3, 6, 12, 9, 12, 7, 10, 4, 5, 16, 5, 4, 5, 10, 9, 16, 5];
circuit_widths=[7, 7, 1, 1, 2, 2, 2, 2, 1, 1, 6, 6, 2, 2, 3, 1, 1, 3, 3, 2, 2, 3, 3, 3, 3];
max_height=190;
min_height=40;
n_circuits=25;
plate_width=15;
